p tw 60 90
1 13
1 44
1 56
2 24
2 60
2 55
13 24
13 31
24 10
35 57
35 59
35 5
46 58
46 60
46 9
57 58
57 14
58 15
59 60
59 53
3 4
3 5
3 14
4 21
4 43
5 6
6 42
6 51
7 8
7 9
7 15
8 19
8 37
9 10
10 36
11 12
11 14
11 20
12 15
12 18
16 17
16 26
16 29
17 19
17 33
18 19
18 25
20 21
20 25
21 23
22 23
22 26
22 30
23 40
25 26
27 29
27 34
27 47
28 30
28 41
28 48
29 30
31 32
31 36
32 34
32 49
33 34
33 37
36 37
38 39
38 42
38 52
39 41
39 50
40 41
40 43
42 43
44 45
44 49
45 50
45 54
47 48
47 49
48 50
51 52
51 53
52 54
53 55
54 56
55 56
